NAME : LR2_6_2
TYPE : PDPTW
DIMENSION : 150
EDGE_WEIGHT_TYPE : EXACT_2D
NODE_COORD_SECTION
1 1 0
2 150 0
3 0 0
4 -19 4261
5 0 2
6 0 4646
7 3 284
8 4650 10
9 38 139
10 10 28
11 178 -12
12 595 0
13 -33 1855
14 0 7
15 2889 2994
16 8 175
17 4709 10
18 45 115
19 10 480
20 203 5
21 0 57
22 -35 3060
23 0 12
24 863 994
25 13 274
26 4623 10
27 232 121
28 10 0
29 83 -19
30 165 0
31 33 669
32 6 17
33 0 4743
34 18 61
35 1432 10
36 80 35
37 10 468
38 135 7
39 0 248
40 -27 702
41 0 22
42 2074 2166
43 23 102
44 4760 10
45 276 28
46 10 0
47 179 19
48 0 358
49 23 563
50 466 27
51 2516 2595
52 28 61
53 4724 10
54 283 144
55 10 0
56 232 11
57 0 117
58 -10 2416
59 0 32
60 2278 2416
61 33 176
62 2593 10
63 117 168
64 10 0
65 102 29
66 0 602
67 10 1634
68 321 37
69 0 4661
70 38 29
71 3101 10
72 136 241
73 10 0
74 42 17
75 0 306
76 -12 1778
77 0 42
78 0 4664
79 43 136
80 2478 10
81 230 80
82 10 405
83 172 2
84 0 192
85 16 1000
86 43 47
87 2733 2878
88 48 72
89 4662 10
90 57 125
91 10 0
92 47 6
93 0 374
94 -6 2775
95 0 52
96 2541 2643
97 53 220
98 2614 10
99 191 234
100 10 0
101 40 -26
102 200 0
103 13 0
104 73 57
105 0 4698
106 58 272
107 1528 10
108 56 116
109 10 0
110 93 -19
111 304 0
112 24 3538
113 606 62
114 2766 2865
115 63 208
116 1367 10
117 285 283
118 10 139
119 37 -13
120 145 0
121 19 144
122 274 67
123 493 594
124 68 37
125 597 10
126 201 175
127 10 352
128 155 11
129 0 560
130 -12 3657
131 0 72
132 2690 2774
133 73 279
134 2918 10
135 46 155
136 10 197
137 178 -18
138 388 0
139 -22 0
140 0 77
141 2567 2761
142 78 268
143 3512 10
144 207 149
145 10 516
146 123 -5
147 395 0
148 16 2735
149 450 82
150 249 462
PICKUP_AND_DELIVERY_SECTION
1 0 0 0 0 0 0
2 0 0 0 0 4823 0
3 0 0 0 0 0 133
4 0 0 0 0 10 10
5 0 0 0 0 41 41
6 0 0 0 0 366 366
7 0 0 0 0 12 12
8 0 0 0 0 41 0
9 0 0 0 0 0 0
10 0 0 0 0 5 0
11 0 0 0 0 3197 3197
12 0 0 0 0 241 241
13 0 0 0 0 10 10
14 0 0 0 0 221 221
15 0 0 0 0 558 558
16 0 0 0 0 8 8
17 0 0 0 0 469 0
18 0 0 0 0 889 889
19 0 0 0 0 10 0
20 0 0 0 0 2277 2277
21 0 0 0 0 178 178
22 0 0 0 0 10 10
23 0 0 0 0 2 2
24 0 0 0 0 0 0
25 0 0 0 0 -8 -8
26 0 0 0 0 0 0
27 0 0 0 0 2286 2286
28 0 0 0 0 15 15
29 0 0 0 0 875 875
30 0 0 0 0 275 275
31 0 0 0 0 10 10
32 0 0 0 0 211 211
33 0 0 0 0 497 497
34 0 0 0 0 -33 -33
35 0 0 0 0 0 0
36 0 0 0 0 2051 2051
37 0 0 0 0 20 0
38 0 0 0 0 3736 3736
39 0 0 0 0 60 60
40 0 0 0 0 10 10
41 0 0 0 0 127 127
42 0 0 0 0 0 0
43 0 0 0 0 -21 -21
44 0 0 0 0 0 0
45 0 0 0 0 1078 1078
46 0 0 0 0 25 25
47 0 0 0 0 3413 3413
48 0 0 0 0 289 289
49 0 0 0 0 10 10
50 0 0 0 0 134 134
51 0 0 0 0 0 0
52 0 0 0 0 9 9
53 0 0 0 0 4 0
54 0 0 0 0 481 481
55 0 0 0 0 30 30
56 0 0 0 0 4716 0
57 0 0 0 0 120 120
58 0 0 0 0 10 10
59 0 0 0 0 64 64
60 0 0 0 0 173 173
61 0 0 0 0 5 5
62 0 0 0 0 531 0
63 0 0 0 0 82 82
64 0 0 0 0 35 35
65 0 0 0 0 4301 4301
66 0 0 0 0 157 157
67 0 0 0 0 10 10
68 0 0 0 0 3 3
69 0 0 0 0 295 295
70 0 0 0 0 -19 -19
71 0 0 0 0 0 0
72 0 0 0 0 1532 1532
73 0 0 0 0 40 40
74 0 0 0 0 1141 1141
75 0 0 0 0 183 183
76 0 0 0 0 10 10
77 0 0 0 0 299 299
78 0 0 0 0 424 424
79 0 0 0 0 -16 -16
80 0 0 0 0 0 0
81 0 0 0 0 0 0
82 0 0 0 0 45 0
83 0 0 0 0 3115 3115
84 0 0 0 0 136 136
85 0 0 0 0 10 10
86 0 0 0 0 200 200
87 0 0 0 0 496 496
88 0 0 0 0 -12 -12
89 0 0 0 0 0 0
90 0 0 0 0 841 841
91 0 0 0 0 50 50
92 0 0 0 0 553 553
93 0 0 0 0 262 262
94 0 0 0 0 10 10
95 0 0 0 0 250 250
96 0 0 0 0 309 309
97 0 0 0 0 -33 -33
98 0 0 0 0 0 0
99 0 0 0 0 274 274
100 0 0 0 0 55 55
101 0 0 0 0 4697 0
102 0 0 0 0 227 227
103 0 0 0 0 10 10
104 0 0 0 0 141 141
105 0 0 0 0 10 10
106 0 0 0 0 8 8
107 0 0 0 0 245 0
108 0 0 0 0 934 934
109 0 0 0 0 60 60
110 0 0 0 0 2051 2051
111 0 0 0 0 120 120
112 0 0 0 0 0 0
113 0 0 0 0 119 119
114 0 0 0 0 143 143
115 0 0 0 0 16 16
116 0 0 0 0 452 0
117 0 0 0 0 2200 2200
118 0 0 0 0 65 0
119 0 0 0 0 3368 3368
120 0 0 0 0 180 180
121 0 0 0 0 10 10
122 0 0 0 0 139 139
123 0 0 0 0 0 0
124 0 0 0 0 7 7
125 0 0 0 0 303 0
126 0 0 0 0 2787 2787
127 0 0 0 0 70 0
128 0 0 0 0 179 179
129 0 0 0 0 94 94
130 0 0 0 0 10 10
131 0 0 0 0 135 135
132 0 0 0 0 27 27
133 0 0 0 0 -13 -13
134 0 0 0 0 0 0
135 0 0 0 0 3051 3051
136 0 0 0 0 75 0
137 0 0 0 0 3168 3168
138 0 0 0 0 15 15
139 0 0 0 0 10 10
140 0 0 0 0 146 146
141 0 0 0 0 0 0
142 0 0 0 0 -21 -21
143 0 0 0 0 0 0
144 0 0 0 0 0 0
145 0 0 0 0 80 0
146 0 0 0 0 254 254
147 0 0 0 0 103 103
148 0 0 0 0 10 10
149 0 0 0 0 235 235
150 0 0 0 0 0 0
DEPOT_SECTION
1 
-1
EOF
